p cnf 332 1040
1 4 9 14 0
-1 -4 0
-1 -9 0
-1 -14 0
-4 -9 0
-4 -14 0
-9 -14 0
17 20 25 30 0
-17 -20 0
-17 -25 0
-17 -30 0
-20 -25 0
-20 -30 0
-25 -30 0
-1 -297 -33 0
-1 -297 58 0
-4 -297 -58 0
-4 -297 99 0
-9 -297 -99 0
-9 -297 140 0
-33 -298 -36 0
-33 -298 63 0
-58 -298 -63 0
-58 -298 104 0
-99 -298 -104 0
-99 -298 143 0
-36 -299 -39 0
-36 -299 68 0
-63 -299 -68 0
-63 -299 109 0
-104 -299 -109 0
-104 -299 146 0
-39 -300 -42 0
-39 -300 73 0
-68 -300 -73 0
-68 -300 114 0
-109 -300 -114 0
-109 -300 149 0
-42 -301 -45 0
-42 -301 78 0
-73 -301 -78 0
-73 -301 119 0
-114 -301 -119 0
-114 -301 152 0
-45 -302 -48 0
-45 -302 83 0
-78 -302 -83 0
-78 -302 124 0
-119 -302 -124 0
-119 -302 155 0
-48 -303 -51 0
-48 -303 88 0
-83 -303 -88 0
-83 -303 129 0
-124 -303 -129 0
-124 -303 158 0
-51 -304 -54 0
-51 -304 93 0
-88 -304 -93 0
-88 -304 134 0
-129 -304 -134 0
-129 -304 161 0
-54 -305 -57 0
-54 -305 98 0
-93 -305 -98 0
-93 -305 139 0
-134 -305 -139 0
-134 -305 164 0
-4 -306 -58 0
-4 -306 33 0
-9 -306 -99 0
-9 -306 58 0
-14 -306 -140 0
-14 -306 99 0
-58 -307 -63 0
-58 -307 36 0
-99 -307 -104 0
-99 -307 63 0
-140 -307 -143 0
-140 -307 104 0
-63 -308 -68 0
-63 -308 39 0
-104 -308 -109 0
-104 -308 68 0
-143 -308 -146 0
-143 -308 109 0
-68 -309 -73 0
-68 -309 42 0
-109 -309 -114 0
-109 -309 73 0
-146 -309 -149 0
-146 -309 114 0
-73 -310 -78 0
-73 -310 45 0
-114 -310 -119 0
-114 -310 78 0
-149 -310 -152 0
-149 -310 119 0
-78 -311 -83 0
-78 -311 48 0
-119 -311 -124 0
-119 -311 83 0
-152 -311 -155 0
-152 -311 124 0
-83 -312 -88 0
-83 -312 51 0
-124 -312 -129 0
-124 -312 88 0
-155 -312 -158 0
-155 -312 129 0
-88 -313 -93 0
-88 -313 54 0
-129 -313 -134 0
-129 -313 93 0
-158 -313 -161 0
-158 -313 134 0
-93 -314 -98 0
-93 -314 57 0
-134 -314 -139 0
-134 -314 98 0
-161 -314 -164 0
-161 -314 139 0
-17 -315 -165 0
-17 -315 190 0
-20 -315 -190 0
-20 -315 231 0
-25 -315 -231 0
-25 -315 272 0
-165 -316 -168 0
-165 -316 195 0
-190 -316 -195 0
-190 -316 236 0
-231 -316 -236 0
-231 -316 275 0
-168 -317 -171 0
-168 -317 200 0
-195 -317 -200 0
-195 -317 241 0
-236 -317 -241 0
-236 -317 278 0
-171 -318 -174 0
-171 -318 205 0
-200 -318 -205 0
-200 -318 246 0
-241 -318 -246 0
-241 -318 281 0
-174 -319 -177 0
-174 -319 210 0
-205 -319 -210 0
-205 -319 251 0
-246 -319 -251 0
-246 -319 284 0
-177 -320 -180 0
-177 -320 215 0
-210 -320 -215 0
-210 -320 256 0
-251 -320 -256 0
-251 -320 287 0
-180 -321 -183 0
-180 -321 220 0
-215 -321 -220 0
-215 -321 261 0
-256 -321 -261 0
-256 -321 290 0
-183 -322 -186 0
-183 -322 225 0
-220 -322 -225 0
-220 -322 266 0
-261 -322 -266 0
-261 -322 293 0
-186 -323 -189 0
-186 -323 230 0
-225 -323 -230 0
-225 -323 271 0
-266 -323 -271 0
-266 -323 296 0
-20 -324 -190 0
-20 -324 165 0
-25 -324 -231 0
-25 -324 190 0
-30 -324 -272 0
-30 -324 231 0
-190 -325 -195 0
-190 -325 168 0
-231 -325 -236 0
-231 -325 195 0
-272 -325 -275 0
-272 -325 236 0
-195 -326 -200 0
-195 -326 171 0
-236 -326 -241 0
-236 -326 200 0
-275 -326 -278 0
-275 -326 241 0
-200 -327 -205 0
-200 -327 174 0
-241 -327 -246 0
-241 -327 205 0
-278 -327 -281 0
-278 -327 246 0
-205 -328 -210 0
-205 -328 177 0
-246 -328 -251 0
-246 -328 210 0
-281 -328 -284 0
-281 -328 251 0
-210 -329 -215 0
-210 -329 180 0
-251 -329 -256 0
-251 -329 215 0
-284 -329 -287 0
-284 -329 256 0
-215 -330 -220 0
-215 -330 183 0
-256 -330 -261 0
-256 -330 220 0
-287 -330 -290 0
-287 -330 261 0
-220 -331 -225 0
-220 -331 186 0
-261 -331 -266 0
-261 -331 225 0
-290 -331 -293 0
-290 -331 266 0
-225 -332 -230 0
-225 -332 189 0
-266 -332 -271 0
-266 -332 230 0
-293 -332 -296 0
-293 -332 271 0
-1 -297 2 0
-2 1 0
-2 297 0
2 -1 33 0
-4 -306 3 0
-3 4 0
-3 306 0
3 1 -33 0
-33 -298 34 0
-34 33 0
-34 298 0
34 -33 36 0
-58 -307 35 0
-35 58 0
-35 307 0
35 33 -36 0
-36 -299 37 0
-37 36 0
-37 299 0
37 -36 39 0
-63 -308 38 0
-38 63 0
-38 308 0
38 36 -39 0
-39 -300 40 0
-40 39 0
-40 300 0
40 -39 42 0
-68 -309 41 0
-41 68 0
-41 309 0
41 39 -42 0
-42 -301 43 0
-43 42 0
-43 301 0
43 -42 45 0
-73 -310 44 0
-44 73 0
-44 310 0
44 42 -45 0
-45 -302 46 0
-46 45 0
-46 302 0
46 -45 48 0
-78 -311 47 0
-47 78 0
-47 311 0
47 45 -48 0
-48 -303 49 0
-49 48 0
-49 303 0
49 -48 51 0
-83 -312 50 0
-50 83 0
-50 312 0
50 48 -51 0
-51 -304 52 0
-52 51 0
-52 304 0
52 -51 54 0
-88 -313 53 0
-53 88 0
-53 313 0
53 51 -54 0
-54 -305 55 0
-55 54 0
-55 305 0
55 -54 57 0
-93 -314 56 0
-56 93 0
-56 314 0
56 54 -57 0
-4 -297 5 0
-5 4 0
-5 297 0
-4 -306 6 0
-6 4 0
-6 306 0
5 6 -4 58 0
-1 -297 7 0
-7 1 0
-7 297 0
-9 -306 8 0
-8 9 0
-8 306 0
7 8 4 -58 0
-58 -298 59 0
-59 58 0
-59 298 0
-58 -307 60 0
-60 58 0
-60 307 0
59 60 -58 63 0
-33 -298 61 0
-61 33 0
-61 298 0
-99 -307 62 0
-62 99 0
-62 307 0
61 62 58 -63 0
-63 -299 64 0
-64 63 0
-64 299 0
-63 -308 65 0
-65 63 0
-65 308 0
64 65 -63 68 0
-36 -299 66 0
-66 36 0
-66 299 0
-104 -308 67 0
-67 104 0
-67 308 0
66 67 63 -68 0
-68 -300 69 0
-69 68 0
-69 300 0
-68 -309 70 0
-70 68 0
-70 309 0
69 70 -68 73 0
-39 -300 71 0
-71 39 0
-71 300 0
-109 -309 72 0
-72 109 0
-72 309 0
71 72 68 -73 0
-73 -301 74 0
-74 73 0
-74 301 0
-73 -310 75 0
-75 73 0
-75 310 0
74 75 -73 78 0
-42 -301 76 0
-76 42 0
-76 301 0
-114 -310 77 0
-77 114 0
-77 310 0
76 77 73 -78 0
-78 -302 79 0
-79 78 0
-79 302 0
-78 -311 80 0
-80 78 0
-80 311 0
79 80 -78 83 0
-45 -302 81 0
-81 45 0
-81 302 0
-119 -311 82 0
-82 119 0
-82 311 0
81 82 78 -83 0
-83 -303 84 0
-84 83 0
-84 303 0
-83 -312 85 0
-85 83 0
-85 312 0
84 85 -83 88 0
-48 -303 86 0
-86 48 0
-86 303 0
-124 -312 87 0
-87 124 0
-87 312 0
86 87 83 -88 0
-88 -304 89 0
-89 88 0
-89 304 0
-88 -313 90 0
-90 88 0
-90 313 0
89 90 -88 93 0
-51 -304 91 0
-91 51 0
-91 304 0
-129 -313 92 0
-92 129 0
-92 313 0
91 92 88 -93 0
-93 -305 94 0
-94 93 0
-94 305 0
-93 -314 95 0
-95 93 0
-95 314 0
94 95 -93 98 0
-54 -305 96 0
-96 54 0
-96 305 0
-134 -314 97 0
-97 134 0
-97 314 0
96 97 93 -98 0
-9 -297 10 0
-10 9 0
-10 297 0
-9 -306 11 0
-11 9 0
-11 306 0
10 11 -9 99 0
-4 -297 12 0
-12 4 0
-12 297 0
-14 -306 13 0
-13 14 0
-13 306 0
12 13 9 -99 0
-99 -298 100 0
-100 99 0
-100 298 0
-99 -307 101 0
-101 99 0
-101 307 0
100 101 -99 104 0
-58 -298 102 0
-102 58 0
-102 298 0
-140 -307 103 0
-103 140 0
-103 307 0
102 103 99 -104 0
-104 -299 105 0
-105 104 0
-105 299 0
-104 -308 106 0
-106 104 0
-106 308 0
105 106 -104 109 0
-63 -299 107 0
-107 63 0
-107 299 0
-143 -308 108 0
-108 143 0
-108 308 0
107 108 104 -109 0
-109 -300 110 0
-110 109 0
-110 300 0
-109 -309 111 0
-111 109 0
-111 309 0
110 111 -109 114 0
-68 -300 112 0
-112 68 0
-112 300 0
-146 -309 113 0
-113 146 0
-113 309 0
112 113 109 -114 0
-114 -301 115 0
-115 114 0
-115 301 0
-114 -310 116 0
-116 114 0
-116 310 0
115 116 -114 119 0
-73 -301 117 0
-117 73 0
-117 301 0
-149 -310 118 0
-118 149 0
-118 310 0
117 118 114 -119 0
-119 -302 120 0
-120 119 0
-120 302 0
-119 -311 121 0
-121 119 0
-121 311 0
120 121 -119 124 0
-78 -302 122 0
-122 78 0
-122 302 0
-152 -311 123 0
-123 152 0
-123 311 0
122 123 119 -124 0
-124 -303 125 0
-125 124 0
-125 303 0
-124 -312 126 0
-126 124 0
-126 312 0
125 126 -124 129 0
-83 -303 127 0
-127 83 0
-127 303 0
-155 -312 128 0
-128 155 0
-128 312 0
127 128 124 -129 0
-129 -304 130 0
-130 129 0
-130 304 0
-129 -313 131 0
-131 129 0
-131 313 0
130 131 -129 134 0
-88 -304 132 0
-132 88 0
-132 304 0
-158 -313 133 0
-133 158 0
-133 313 0
132 133 129 -134 0
-134 -305 135 0
-135 134 0
-135 305 0
-134 -314 136 0
-136 134 0
-136 314 0
135 136 -134 139 0
-93 -305 137 0
-137 93 0
-137 305 0
-161 -314 138 0
-138 161 0
-138 314 0
137 138 134 -139 0
-14 -306 15 0
-15 14 0
-15 306 0
15 -14 140 0
-9 -297 16 0
-16 9 0
-16 297 0
16 14 -140 0
-140 -307 141 0
-141 140 0
-141 307 0
141 -140 143 0
-99 -298 142 0
-142 99 0
-142 298 0
142 140 -143 0
-143 -308 144 0
-144 143 0
-144 308 0
144 -143 146 0
-104 -299 145 0
-145 104 0
-145 299 0
145 143 -146 0
-146 -309 147 0
-147 146 0
-147 309 0
147 -146 149 0
-109 -300 148 0
-148 109 0
-148 300 0
148 146 -149 0
-149 -310 150 0
-150 149 0
-150 310 0
150 -149 152 0
-114 -301 151 0
-151 114 0
-151 301 0
151 149 -152 0
-152 -311 153 0
-153 152 0
-153 311 0
153 -152 155 0
-119 -302 154 0
-154 119 0
-154 302 0
154 152 -155 0
-155 -312 156 0
-156 155 0
-156 312 0
156 -155 158 0
-124 -303 157 0
-157 124 0
-157 303 0
157 155 -158 0
-158 -313 159 0
-159 158 0
-159 313 0
159 -158 161 0
-129 -304 160 0
-160 129 0
-160 304 0
160 158 -161 0
-161 -314 162 0
-162 161 0
-162 314 0
162 -161 164 0
-134 -305 163 0
-163 134 0
-163 305 0
163 161 -164 0
-17 -315 18 0
-18 17 0
-18 315 0
18 -17 165 0
-20 -324 19 0
-19 20 0
-19 324 0
19 17 -165 0
-165 -316 166 0
-166 165 0
-166 316 0
166 -165 168 0
-190 -325 167 0
-167 190 0
-167 325 0
167 165 -168 0
-168 -317 169 0
-169 168 0
-169 317 0
169 -168 171 0
-195 -326 170 0
-170 195 0
-170 326 0
170 168 -171 0
-171 -318 172 0
-172 171 0
-172 318 0
172 -171 174 0
-200 -327 173 0
-173 200 0
-173 327 0
173 171 -174 0
-174 -319 175 0
-175 174 0
-175 319 0
175 -174 177 0
-205 -328 176 0
-176 205 0
-176 328 0
176 174 -177 0
-177 -320 178 0
-178 177 0
-178 320 0
178 -177 180 0
-210 -329 179 0
-179 210 0
-179 329 0
179 177 -180 0
-180 -321 181 0
-181 180 0
-181 321 0
181 -180 183 0
-215 -330 182 0
-182 215 0
-182 330 0
182 180 -183 0
-183 -322 184 0
-184 183 0
-184 322 0
184 -183 186 0
-220 -331 185 0
-185 220 0
-185 331 0
185 183 -186 0
-186 -323 187 0
-187 186 0
-187 323 0
187 -186 189 0
-225 -332 188 0
-188 225 0
-188 332 0
188 186 -189 0
-20 -315 21 0
-21 20 0
-21 315 0
-20 -324 22 0
-22 20 0
-22 324 0
21 22 -20 190 0
-17 -315 23 0
-23 17 0
-23 315 0
-25 -324 24 0
-24 25 0
-24 324 0
23 24 20 -190 0
-190 -316 191 0
-191 190 0
-191 316 0
-190 -325 192 0
-192 190 0
-192 325 0
191 192 -190 195 0
-165 -316 193 0
-193 165 0
-193 316 0
-231 -325 194 0
-194 231 0
-194 325 0
193 194 190 -195 0
-195 -317 196 0
-196 195 0
-196 317 0
-195 -326 197 0
-197 195 0
-197 326 0
196 197 -195 200 0
-168 -317 198 0
-198 168 0
-198 317 0
-236 -326 199 0
-199 236 0
-199 326 0
198 199 195 -200 0
-200 -318 201 0
-201 200 0
-201 318 0
-200 -327 202 0
-202 200 0
-202 327 0
201 202 -200 205 0
-171 -318 203 0
-203 171 0
-203 318 0
-241 -327 204 0
-204 241 0
-204 327 0
203 204 200 -205 0
-205 -319 206 0
-206 205 0
-206 319 0
-205 -328 207 0
-207 205 0
-207 328 0
206 207 -205 210 0
-174 -319 208 0
-208 174 0
-208 319 0
-246 -328 209 0
-209 246 0
-209 328 0
208 209 205 -210 0
-210 -320 211 0
-211 210 0
-211 320 0
-210 -329 212 0
-212 210 0
-212 329 0
211 212 -210 215 0
-177 -320 213 0
-213 177 0
-213 320 0
-251 -329 214 0
-214 251 0
-214 329 0
213 214 210 -215 0
-215 -321 216 0
-216 215 0
-216 321 0
-215 -330 217 0
-217 215 0
-217 330 0
216 217 -215 220 0
-180 -321 218 0
-218 180 0
-218 321 0
-256 -330 219 0
-219 256 0
-219 330 0
218 219 215 -220 0
-220 -322 221 0
-221 220 0
-221 322 0
-220 -331 222 0
-222 220 0
-222 331 0
221 222 -220 225 0
-183 -322 223 0
-223 183 0
-223 322 0
-261 -331 224 0
-224 261 0
-224 331 0
223 224 220 -225 0
-225 -323 226 0
-226 225 0
-226 323 0
-225 -332 227 0
-227 225 0
-227 332 0
226 227 -225 230 0
-186 -323 228 0
-228 186 0
-228 323 0
-266 -332 229 0
-229 266 0
-229 332 0
228 229 225 -230 0
-25 -315 26 0
-26 25 0
-26 315 0
-25 -324 27 0
-27 25 0
-27 324 0
26 27 -25 231 0
-20 -315 28 0
-28 20 0
-28 315 0
-30 -324 29 0
-29 30 0
-29 324 0
28 29 25 -231 0
-231 -316 232 0
-232 231 0
-232 316 0
-231 -325 233 0
-233 231 0
-233 325 0
232 233 -231 236 0
-190 -316 234 0
-234 190 0
-234 316 0
-272 -325 235 0
-235 272 0
-235 325 0
234 235 231 -236 0
-236 -317 237 0
-237 236 0
-237 317 0
-236 -326 238 0
-238 236 0
-238 326 0
237 238 -236 241 0
-195 -317 239 0
-239 195 0
-239 317 0
-275 -326 240 0
-240 275 0
-240 326 0
239 240 236 -241 0
-241 -318 242 0
-242 241 0
-242 318 0
-241 -327 243 0
-243 241 0
-243 327 0
242 243 -241 246 0
-200 -318 244 0
-244 200 0
-244 318 0
-278 -327 245 0
-245 278 0
-245 327 0
244 245 241 -246 0
-246 -319 247 0
-247 246 0
-247 319 0
-246 -328 248 0
-248 246 0
-248 328 0
247 248 -246 251 0
-205 -319 249 0
-249 205 0
-249 319 0
-281 -328 250 0
-250 281 0
-250 328 0
249 250 246 -251 0
-251 -320 252 0
-252 251 0
-252 320 0
-251 -329 253 0
-253 251 0
-253 329 0
252 253 -251 256 0
-210 -320 254 0
-254 210 0
-254 320 0
-284 -329 255 0
-255 284 0
-255 329 0
254 255 251 -256 0
-256 -321 257 0
-257 256 0
-257 321 0
-256 -330 258 0
-258 256 0
-258 330 0
257 258 -256 261 0
-215 -321 259 0
-259 215 0
-259 321 0
-287 -330 260 0
-260 287 0
-260 330 0
259 260 256 -261 0
-261 -322 262 0
-262 261 0
-262 322 0
-261 -331 263 0
-263 261 0
-263 331 0
262 263 -261 266 0
-220 -322 264 0
-264 220 0
-264 322 0
-290 -331 265 0
-265 290 0
-265 331 0
264 265 261 -266 0
-266 -323 267 0
-267 266 0
-267 323 0
-266 -332 268 0
-268 266 0
-268 332 0
267 268 -266 271 0
-225 -323 269 0
-269 225 0
-269 323 0
-293 -332 270 0
-270 293 0
-270 332 0
269 270 266 -271 0
-30 -324 31 0
-31 30 0
-31 324 0
31 -30 272 0
-25 -315 32 0
-32 25 0
-32 315 0
32 30 -272 0
-272 -325 273 0
-273 272 0
-273 325 0
273 -272 275 0
-231 -316 274 0
-274 231 0
-274 316 0
274 272 -275 0
-275 -326 276 0
-276 275 0
-276 326 0
276 -275 278 0
-236 -317 277 0
-277 236 0
-277 317 0
277 275 -278 0
-278 -327 279 0
-279 278 0
-279 327 0
279 -278 281 0
-241 -318 280 0
-280 241 0
-280 318 0
280 278 -281 0
-281 -328 282 0
-282 281 0
-282 328 0
282 -281 284 0
-246 -319 283 0
-283 246 0
-283 319 0
283 281 -284 0
-284 -329 285 0
-285 284 0
-285 329 0
285 -284 287 0
-251 -320 286 0
-286 251 0
-286 320 0
286 284 -287 0
-287 -330 288 0
-288 287 0
-288 330 0
288 -287 290 0
-256 -321 289 0
-289 256 0
-289 321 0
289 287 -290 0
-290 -331 291 0
-291 290 0
-291 331 0
291 -290 293 0
-261 -322 292 0
-292 261 0
-292 322 0
292 290 -293 0
-293 -332 294 0
-294 293 0
-294 332 0
294 -293 296 0
-266 -323 295 0
-295 266 0
-295 323 0
295 293 -296 0
-297 -306 0
-298 -307 0
-299 -308 0
-300 -309 0
-301 -310 0
-302 -311 0
-303 -312 0
-304 -313 0
-305 -314 0
-315 -324 0
-316 -325 0
-317 -326 0
-318 -327 0
-319 -328 0
-320 -329 0
-321 -330 0
-322 -331 0
-323 -332 0
